Assembly Task Scheduling/sualbsp-2-master/code/models/sualbsp2_subproblem-03.fzn
predicate chuffed_cumulative_vars(array [int] of var int: s,array [int] of var int: d,array [int] of var int: r,var int: b);
array [1..2] of int: X_INTRODUCED_31_ = [1,1];
array [1..3] of int: X_INTRODUCED_40_ = [1,1,1];
array [1..6] of int: X_INTRODUCED_50_ = [1,1,1,1,1,1];
array [1..3] of int: X_INTRODUCED_52_ = [1,1,-1];
array [1..2] of int: X_INTRODUCED_56_ = [1,-1];
array [1..4] of int: X_INTRODUCED_63_ = [1,1,1,-1];
array [1..9] of int: X_INTRODUCED_71_ = [6,7,7,3,2,3,3,3,2];
var 0..13: X_INTRODUCED_5_;
var 0..13: X_INTRODUCED_8_;
var 0..13: X_INTRODUCED_11_;
var bool: X_INTRODUCED_12_;
var bool: X_INTRODUCED_13_:: is_defined_var;
var bool: X_INTRODUCED_14_;
var bool: X_INTRODUCED_15_;
var bool: X_INTRODUCED_16_;
var bool: X_INTRODUCED_17_:: is_defined_var;
var bool: X_INTRODUCED_18_;
var bool: X_INTRODUCED_19_;
var bool: X_INTRODUCED_20_;
var bool: X_INTRODUCED_21_;
var bool: X_INTRODUCED_22_;
var bool: X_INTRODUCED_23_;
var bool: X_INTRODUCED_24_;
var bool: X_INTRODUCED_25_;
var bool: X_INTRODUCED_26_;
var bool: X_INTRODUCED_27_;
var bool: X_INTRODUCED_28_;
var bool: X_INTRODUCED_29_;
var 0..13: load:: output_var;
var 0..1: X_INTRODUCED_32_ ::var_is_introduced :: is_defined_var;
var 0..1: X_INTRODUCED_33_ ::var_is_introduced :: is_defined_var;
var 0..1: X_INTRODUCED_35_ ::var_is_introduced :: is_defined_var;
var 0..1: X_INTRODUCED_36_ ::var_is_introduced :: is_defined_var;
var 0..1: X_INTRODUCED_38_ ::var_is_introduced :: is_defined_var;
var 0..1: X_INTRODUCED_41_ ::var_is_introduced :: is_defined_var;
var 0..1: X_INTRODUCED_42_ ::var_is_introduced :: is_defined_var;
var 0..1: X_INTRODUCED_43_ ::var_is_introduced :: is_defined_var;
var 0..1: X_INTRODUCED_64_ ::var_is_introduced :: is_defined_var;
var 0..1: X_INTRODUCED_65_ ::var_is_introduced :: is_defined_var;
var 0..1: X_INTRODUCED_66_ ::var_is_introduced :: is_defined_var;
var 0..1: X_INTRODUCED_67_ ::var_is_introduced :: is_defined_var;
var 0..1: X_INTRODUCED_68_ ::var_is_introduced :: is_defined_var;
var 0..1: X_INTRODUCED_69_ ::var_is_introduced :: is_defined_var;
var 0..1: X_INTRODUCED_70_ ::var_is_introduced :: is_defined_var;
var 0..1: X_INTRODUCED_74_ ::var_is_introduced :: is_defined_var;
var 0..1: X_INTRODUCED_75_ ::var_is_introduced :: is_defined_var;
var 0..1: X_INTRODUCED_76_ ::var_is_introduced :: is_defined_var;
array [1..3] of var int: s:: output_array([1..3]) = [X_INTRODUCED_5_,X_INTRODUCED_8_,X_INTRODUCED_11_];
array [1..9] of var int: X_INTRODUCED_72_ ::var_is_introduced  = [X_INTRODUCED_5_,X_INTRODUCED_5_,X_INTRODUCED_5_,X_INTRODUCED_8_,X_INTRODUCED_8_,X_INTRODUCED_8_,X_INTRODUCED_11_,X_INTRODUCED_11_,X_INTRODUCED_11_];
array [1..9] of var int: X_INTRODUCED_73_ ::var_is_introduced  = [X_INTRODUCED_64_,X_INTRODUCED_33_,X_INTRODUCED_65_,X_INTRODUCED_66_,X_INTRODUCED_67_,X_INTRODUCED_38_,X_INTRODUCED_68_,X_INTRODUCED_69_,X_INTRODUCED_70_];
constraint int_lin_eq(X_INTRODUCED_31_,[X_INTRODUCED_33_,X_INTRODUCED_32_],1);
constraint int_lin_eq(X_INTRODUCED_40_,[X_INTRODUCED_38_,X_INTRODUCED_35_,X_INTRODUCED_36_],1);
constraint int_lin_eq(X_INTRODUCED_40_,[X_INTRODUCED_41_,X_INTRODUCED_42_,X_INTRODUCED_43_],1);
constraint int_lin_eq(X_INTRODUCED_40_,[X_INTRODUCED_32_,X_INTRODUCED_35_,X_INTRODUCED_41_],1);
constraint int_lin_eq(X_INTRODUCED_40_,[X_INTRODUCED_33_,X_INTRODUCED_36_,X_INTRODUCED_42_],1);
constraint int_lin_eq(X_INTRODUCED_31_,[X_INTRODUCED_38_,X_INTRODUCED_43_],1);
constraint int_lin_eq(X_INTRODUCED_50_,[X_INTRODUCED_32_,X_INTRODUCED_35_,X_INTRODUCED_36_,X_INTRODUCED_41_,X_INTRODUCED_42_,X_INTRODUCED_43_],1);
constraint int_lin_le(X_INTRODUCED_52_,[X_INTRODUCED_5_,X_INTRODUCED_33_,X_INTRODUCED_8_],-6);
constraint int_lin_le(X_INTRODUCED_52_,[X_INTRODUCED_8_,X_INTRODUCED_38_,X_INTRODUCED_11_],-2);
constraint int_lin_le(X_INTRODUCED_56_,[X_INTRODUCED_5_,load],-6);
constraint int_lin_le(X_INTRODUCED_52_,[X_INTRODUCED_8_,X_INTRODUCED_35_,load],-2);
constraint int_lin_le(X_INTRODUCED_63_,[X_INTRODUCED_11_,X_INTRODUCED_41_,X_INTRODUCED_42_,load],-2);
constraint chuffed_cumulative_vars(X_INTRODUCED_72_,X_INTRODUCED_71_,X_INTRODUCED_73_,1);
constraint int_eq(X_INTRODUCED_64_,0);
constraint int_eq(X_INTRODUCED_65_,0);
constraint int_eq(X_INTRODUCED_66_,0);
constraint int_eq(X_INTRODUCED_67_,0);
constraint int_eq(X_INTRODUCED_68_,0);
constraint int_eq(X_INTRODUCED_69_,0);
constraint int_eq(X_INTRODUCED_70_,0);
constraint int_eq(X_INTRODUCED_74_,0);
constraint int_eq(X_INTRODUCED_75_,0);
constraint int_eq(X_INTRODUCED_76_,0);
constraint int_lin_eq_reif(X_INTRODUCED_56_,[X_INTRODUCED_5_,X_INTRODUCED_8_],-7,X_INTRODUCED_13_):: defines_var(X_INTRODUCED_13_);
constraint int_lin_eq_reif(X_INTRODUCED_56_,[X_INTRODUCED_8_,X_INTRODUCED_11_],-3,X_INTRODUCED_17_):: defines_var(X_INTRODUCED_17_);
constraint bool2int(X_INTRODUCED_21_,X_INTRODUCED_32_):: defines_var(X_INTRODUCED_32_);
constraint bool2int(X_INTRODUCED_13_,X_INTRODUCED_33_):: defines_var(X_INTRODUCED_33_);
constraint bool2int(X_INTRODUCED_24_,X_INTRODUCED_35_):: defines_var(X_INTRODUCED_35_);
constraint bool2int(X_INTRODUCED_25_,X_INTRODUCED_36_):: defines_var(X_INTRODUCED_36_);
constraint bool2int(X_INTRODUCED_17_,X_INTRODUCED_38_):: defines_var(X_INTRODUCED_38_);
constraint bool2int(X_INTRODUCED_27_,X_INTRODUCED_41_):: defines_var(X_INTRODUCED_41_);
constraint bool2int(X_INTRODUCED_28_,X_INTRODUCED_42_):: defines_var(X_INTRODUCED_42_);
constraint bool2int(X_INTRODUCED_29_,X_INTRODUCED_43_):: defines_var(X_INTRODUCED_43_);
constraint bool2int(X_INTRODUCED_12_,X_INTRODUCED_64_):: defines_var(X_INTRODUCED_64_);
constraint bool2int(X_INTRODUCED_14_,X_INTRODUCED_65_):: defines_var(X_INTRODUCED_65_);
constraint bool2int(X_INTRODUCED_15_,X_INTRODUCED_66_):: defines_var(X_INTRODUCED_66_);
constraint bool2int(X_INTRODUCED_16_,X_INTRODUCED_67_):: defines_var(X_INTRODUCED_67_);
constraint bool2int(X_INTRODUCED_18_,X_INTRODUCED_68_):: defines_var(X_INTRODUCED_68_);
constraint bool2int(X_INTRODUCED_19_,X_INTRODUCED_69_):: defines_var(X_INTRODUCED_69_);
constraint bool2int(X_INTRODUCED_20_,X_INTRODUCED_70_):: defines_var(X_INTRODUCED_70_);
constraint bool2int(X_INTRODUCED_22_,X_INTRODUCED_74_):: defines_var(X_INTRODUCED_74_);
constraint bool2int(X_INTRODUCED_23_,X_INTRODUCED_75_):: defines_var(X_INTRODUCED_75_);
constraint bool2int(X_INTRODUCED_26_,X_INTRODUCED_76_):: defines_var(X_INTRODUCED_76_);
solve :: priority_search(s,[seq_search([int_search([X_INTRODUCED_5_],input_order,indomain_min,complete),int_search([X_INTRODUCED_5_,X_INTRODUCED_5_,X_INTRODUCED_5_],first_fail,indomain_min,complete)]),seq_search([int_search([X_INTRODUCED_8_],input_order,indomain_min,complete),int_search([X_INTRODUCED_8_,X_INTRODUCED_8_,X_INTRODUCED_8_],first_fail,indomain_min,complete)]),seq_search([int_search([X_INTRODUCED_11_],input_order,indomain_min,complete),int_search([X_INTRODUCED_11_,X_INTRODUCED_11_,X_INTRODUCED_11_],first_fail,indomain_min,complete)])],first_fail,complete) minimize load;
