Assembly Task Scheduling/sualbsp-2-master/code/models/sualbsp2_subproblem-03.ozn
output if full_output==0 then [("load = "++show(load))++"\n"] elseif full_output==1 then [("load = "++show(load))++"\n"]++[("start = "++show(s))++"\n"] else [""] endif;
int: load;
array [TASK] of int: s;
int: full_output = 1;
